n_res = 4;
rc = [ 0, 0, 0, 0 ];
n_tasks = 30;
d = [ 4, 5, 3, 6, 6, 1, 1, 10, 5, 6, 5, 3, 9, 9, 7, 9, 6, 2, 4, 1, 4, 9, 9, 4, 3, 6, 8, 4, 2, 1 ];
rr = [| 0, 0, 0, 0, 0, 0, 0, 0, 0, 0, 0, 0, 0, 0, 0, 0, 0, 0, 0, 0, 0, 0, 0, 0, 0, 0, 0, 0, 0, 0
      | 0, 0, 0, 0, 0, 0, 0, 0, 0, 0, 0, 0, 0, 0, 0, 0, 0, 0, 0, 0, 0, 0, 0, 0, 0, 0, 0, 0, 0, 0
      | 0, 0, 0, 0, 0, 0, 0, 0, 0, 0, 0, 0, 0, 0, 0, 0, 0, 0, 0, 0, 0, 0, 0, 0, 0, 0, 0, 0, 0, 0
      | 0, 0, 0, 0, 0, 0, 0, 0, 0, 0, 0, 0, 0, 0, 0, 0, 0, 0, 0, 0, 0, 0, 0, 0, 0, 0, 0, 0, 0, 0 |];
suc = [ { 9, 11, 19 },
       { 5, 15, 21 },
       { 4, 5 },
       { 8, 11, 18 },
       { 6, 9, 10 },
       { 7, 16, 19 },
       { 14, 17, 26 },
       { 15, 19, 21 },
       { 12, 14, 24 },
       { 12, 22, 23 },
       { 12, 15, 23 },
       { 13, 16, 28 },
       { 26, 29 },
       { 22, 28, 30 },
       { 16, 17, 27 },
       { 20, 25, 29 },
       { 24 },
       { 20, 21 },
       { 20, 22 },
       { 26 },
       { 23, 24, 27 },
       { 27 },
       { 25 },
       { 25, 28 },
       { 30 },
       { 30 },
       { 29 },
       {  },
       {  },
       {  } ];
